NAME : netgen18-2_20
COMMENT : Generated using the function generateClusteredNetwork from the R-package netgen (Bossek,2015) - Number of clusters: 2
TYPE : TSP
DIMENSION : 18
EDGE_WEIGHT_TYPE : EUC_2D
NODE_COORD_SECTION
1 45.3584032118 10.4423646317
2 53.6242630117 3.5552419699
3 37.7970498888 12.2411736435
4 32.372359909 7.3958396654
5 35.7184101188 24.9168214912
6 51.9609227053 3.4644315282
7 40.6428599665 4.0394301511
8 59.4116209421 0.8955059341
9 33.2551126986 3.8663704196
10 97.6568650049 59.1777089703
11 97.5640391834 53.2096082294
12 86.9202562326 53.760427753
13 98.182125232 36.6530831651
14 88.6121305306 39.5791385516
15 84.2710483847 55.4451863421
16 99.4288680549 51.5035789864
17 99.4642241164 51.1190351408
18 98.873991075 48.3983649152
EOF
